(declare-const y_1 Int)
(declare-const ab_0 Bool)
(declare-const y_0 Int)
(declare-const new_state_2 Int)
(declare-const objective Int)
(declare-const ab_6 Bool)
(declare-const y_2 Int)
(declare-const new_state_3 Int)
(declare-const state_1 Int)
(declare-const ab_5 Bool)
(declare-const state_0 Int)
(declare-const temp_1_0 Bool)
(declare-const trans_1 Int)
(declare-const new_state_0 Int)
(declare-const ab_4 Bool)
(declare-const temp_0_0 Bool)
(declare-const ab_3 Bool)
(declare-const x_1 Int)
(declare-const new_state_4 Int)
(declare-const new_state_1 Int)
(declare-const trans_0 Int)
(declare-const ab_2 Bool)
(declare-const new_state_5 Int)
(declare-const x_0 Int)
(declare-const y_3 Int)
(declare-const temp_2_0 Bool)
(declare-const ab_1 Bool)
(assert (= x_1 3))
(assert (= state_1 5))
(assert (= trans_1 7))
(assert (or ab_0 (= temp_0_0 (= state_1 0))))
(assert (or ab_1 (= y_1 (* 3 x_1))))
(assert (or ab_2 (= temp_1_0 (= trans_1 1))))
(assert (or ab_3 (= new_state_1 1)))
(assert (= new_state_2 (ite temp_1_0 new_state_1 new_state_0)))
(assert (or ab_4 (= y_2 (* (- 0 2) x_1))))
(assert (or ab_5 (= temp_2_0 (and (not temp_0_0) (= trans_1 1)))))
(assert (or ab_6 (= new_state_3 1)))
(assert (= new_state_4 (ite temp_2_0 new_state_3 new_state_2)))
(assert (= y_3 (ite temp_0_0 y_1 y_2)))
(assert (= new_state_5 (ite temp_0_0 new_state_2 new_state_4)))
(assert (= objective (+ (ite ab_0 1 0) (ite ab_5 1 0) (ite ab_1 1 0) (ite ab_6 1 0) (ite ab_2 1 0) (ite ab_3 1 0) (ite ab_4 1 0))))